n_res = 4;
rc = [ 13, 7, 18, 15 ];
n_tasks = 30;
d = [ 5, 1, 1, 10, 4, 2, 6, 7, 3, 10, 10, 2, 6, 1, 4, 10, 1, 8, 8, 6, 2, 7, 7, 7, 3, 7, 4, 10, 1, 3 ];
rr = [| 1, 0, 0, 0, 0, 3, 0, 0, 6, 0, 1, 0, 0, 0, 0, 0, 0, 0, 0, 0, 0, 0, 4, 6, 0, 5, 0, 5, 10, 2
      | 0, 0, 1, 0, 0, 0, 0, 0, 0, 7, 0, 0, 0, 0, 0, 0, 0, 0, 0, 0, 0, 6, 0, 0, 0, 0, 0, 0, 0, 0
      | 0, 9, 0, 9, 2, 0, 0, 5, 0, 0, 0, 3, 0, 0, 0, 10, 9, 0, 0, 1, 2, 0, 0, 0, 10, 0, 8, 0, 0, 0
      | 0, 0, 0, 0, 0, 0, 10, 0, 0, 0, 0, 0, 2, 5, 4, 0, 0, 9, 10, 0, 0, 0, 0, 0, 0, 0, 0, 0, 0, 0 |];
suc = [ { 2 }, 
        { 1 }, 
        { 4 }, 
        { 3 }, 
        { 6 }, 
        { 5 }, 
        { 8 }, 
        { 7 }, 
        { 10 }, 
        { 9 }, 
        { 12 }, 
        { 11 }, 
        { 14 }, 
        { 13 }, 
        { 16 }, 
        { 15 }, 
        { 18 }, 
        { 17 }, 
        { 20 }, 
        { 19 }, 
        { 22 }, 
        { 21 }, 
        { 24 }, 
        { 23 }, 
        { 26 }, 
        { 25 }, 
        { 28 }, 
        { 27 }, 
        { 30 }, 
        { 29 }]; 
